c CNF file corresponding to a (partial) station packing problem.
p cnf 7200 184
7187 7188 7189 7190 7191 7192 7193 7194 7195 7196 7197 7198 7199 7200 0
-7187 -7188 0
-7187 -7189 0
-7187 -7190 0
-7187 -7191 0
-7187 -7192 0
-7187 -7193 0
-7187 -7194 0
-7187 -7195 0
-7187 -7196 0
-7187 -7197 0
-7187 -7198 0
-7187 -7199 0
-7187 -7200 0
-7188 -7189 0
-7188 -7190 0
-7188 -7191 0
-7188 -7192 0
-7188 -7193 0
-7188 -7194 0
-7188 -7195 0
-7188 -7196 0
-7188 -7197 0
-7188 -7198 0
-7188 -7199 0
-7188 -7200 0
-7189 -7190 0
-7189 -7191 0
-7189 -7192 0
-7189 -7193 0
-7189 -7194 0
-7189 -7195 0
-7189 -7196 0
-7189 -7197 0
-7189 -7198 0
-7189 -7199 0
-7189 -7200 0
-7190 -7191 0
-7190 -7192 0
-7190 -7193 0
-7190 -7194 0
-7190 -7195 0
-7190 -7196 0
-7190 -7197 0
-7190 -7198 0
-7190 -7199 0
-7190 -7200 0
-7191 -7192 0
-7191 -7193 0
-7191 -7194 0
-7191 -7195 0
-7191 -7196 0
-7191 -7197 0
-7191 -7198 0
-7191 -7199 0
-7191 -7200 0
-7192 -7193 0
-7192 -7194 0
-7192 -7195 0
-7192 -7196 0
-7192 -7197 0
-7192 -7198 0
-7192 -7199 0
-7192 -7200 0
-7193 -7194 0
-7193 -7195 0
-7193 -7196 0
-7193 -7197 0
-7193 -7198 0
-7193 -7199 0
-7193 -7200 0
-7194 -7195 0
-7194 -7196 0
-7194 -7197 0
-7194 -7198 0
-7194 -7199 0
-7194 -7200 0
-7195 -7196 0
-7195 -7197 0
-7195 -7198 0
-7195 -7199 0
-7195 -7200 0
-7196 -7197 0
-7196 -7198 0
-7196 -7199 0
-7196 -7200 0
-7197 -7198 0
-7197 -7199 0
-7197 -7200 0
-7198 -7199 0
-7198 -7200 0
-7199 -7200 0
1 2 3 4 5 6 7 8 9 10 11 12 13 14 0
-1 -2 0
-1 -3 0
-1 -4 0
-1 -5 0
-1 -6 0
-1 -7 0
-1 -8 0
-1 -9 0
-1 -10 0
-1 -11 0
-1 -12 0
-1 -13 0
-1 -14 0
-2 -3 0
-2 -4 0
-2 -5 0
-2 -6 0
-2 -7 0
-2 -8 0
-2 -9 0
-2 -10 0
-2 -11 0
-2 -12 0
-2 -13 0
-2 -14 0
-3 -4 0
-3 -5 0
-3 -6 0
-3 -7 0
-3 -8 0
-3 -9 0
-3 -10 0
-3 -11 0
-3 -12 0
-3 -13 0
-3 -14 0
-4 -5 0
-4 -6 0
-4 -7 0
-4 -8 0
-4 -9 0
-4 -10 0
-4 -11 0
-4 -12 0
-4 -13 0
-4 -14 0
-5 -6 0
-5 -7 0
-5 -8 0
-5 -9 0
-5 -10 0
-5 -11 0
-5 -12 0
-5 -13 0
-5 -14 0
-6 -7 0
-6 -8 0
-6 -9 0
-6 -10 0
-6 -11 0
-6 -12 0
-6 -13 0
-6 -14 0
-7 -8 0
-7 -9 0
-7 -10 0
-7 -11 0
-7 -12 0
-7 -13 0
-7 -14 0
-8 -9 0
-8 -10 0
-8 -11 0
-8 -12 0
-8 -13 0
-8 -14 0
-9 -10 0
-9 -11 0
-9 -12 0
-9 -13 0
-9 -14 0
-10 -11 0
-10 -12 0
-10 -13 0
-10 -14 0
-11 -12 0
-11 -13 0
-11 -14 0
-12 -13 0
-12 -14 0
-13 -14 0
